4
2
77 7
66 6
2
5
5
6
32 16
43 12
26 4
50 8
20 3
27 9
4
25
23
21
19
5
1 1
2 1
3 1
2 2
5 5
10
1
2
3
4
5
6
7
8
9
10
10
1 1
4 3
4 3
4 4
5 4
8 6
10 7
9 7
11 8
13 9
30
1
2
3
4
5
6
7
8
9
10
11
12
13
14
15
16
17
18
19
20
21
22
23
24
25
26
27
28
29
30
